(set-info :smt-lib-version 2.6)
(set-logic QF_SLIA)
(declare-const x String)
(assert (str.in_re x (re.parse "_*b_{10}")))
(assert (str.in_re x (re.parse "_*a_{10}")))
(assert (str.in_re x (re.parse "_{10,}abc_{10,}")))
;(assert (str.in_re x (re.parse "_*b_{20}")))
;(assert (str.in_re x (re.parse "_*a_{20}")))
;(assert (str.in_re x (re.parse "_{20,}abc_{20,}")))
;(assert (str.in_re x (re.parse "_*b_{30}")))
;(assert (str.in_re x (re.parse "_*a_{30}")))
;(assert (str.in_re x (re.parse "_{30,}abc_{30,}")))
;(assert (str.in_re x (re.parse "_*b_{40}")))
;(assert (str.in_re x (re.parse "_*a_{40}")))
;(assert (str.in_re x (re.parse "_{40,}abc_{40,}")))
(check-sat)